Route #1: 82 60 59
Route #2: 27 97 19
Route #3: 71 62 99 98 89
Route #4: 14 49 6 37 87
Route #5: 63 77 3
Route #6: 80 94 56 21
Route #7: 100 61 23
Route #8: 74 13 4
Route #9: 79 11 85 30
Route #10: 38 47 26 48 96 64 34
Route #11: 17 8
Route #12: 1 70 54
Route #13: 40 88 67 44
Route #14: 15 22 41 20
Route #15: 92 9 86
Route #16: 93 75
Route #17: 57 72 36 29 43 45 2 7
Route #18: 58 12 5
Route #19: 66 84 90 68
Route #20: 24 95 73 53 33 32
Route #21: 76 55 16 69
Route #22: 25 65 78 42 28
Route #23: 39 10 18
Route #24: 50 91 52
Route #25: 83 51 81
Route #26: 35 46 31
Cost 27591.0000
Time 16.0002